benchmarks/sr2008/minisat/simon-s02b-r4b1k1.2.cnf.gz.minisat.out
WARNING: for repeatability, setting FPU to use double precision
============================[ Problem Statistics ]=============================
|                                                                             |
|  Number of variables:          2424                                         |
|  Number of clauses:           14812                                         |
|  Parse time:                   0.01 s                                       |
|                                                                             |
============================[ Search Statistics ]==============================
| Conflicts |          ORIGINAL         |          LEARNT          | Progress |
|           |    Vars  Clauses Literals |    Limit  Clauses Lit/Cl |          |
===============================================================================
|       100 |    2424    14812    39764 |     5431      100     27 |  0.000 % |
|       250 |    2424    14812    39764 |     5974      250     24 |  0.001 % |
|       475 |    2424    14812    39764 |     6571      475     25 |  0.000 % |
|       812 |    2424    14812    39764 |     7228      812     24 |  0.001 % |
|      1318 |    2424    14812    39764 |     7951     1318     25 |  0.001 % |
|      2077 |    2424    14812    39764 |     8746     2077     25 |  0.000 % |
|      3216 |    2424    14812    39764 |     9621     3216     26 |  0.001 % |
|      4924 |    2424    14812    39764 |    10583     4924     26 |  0.001 % |
|      7486 |    2424    14812    39764 |    11641     7486     26 |  0.001 % |
|     11330 |    2424    14812    39764 |    12806    11330     26 |  0.001 % |
|     17096 |    2424    14812    39764 |    14086    10679     23 |  0.001 % |
|     25745 |    2424    14812    39764 |    15495    12265     22 |  0.001 % |
|     38719 |    2424    14812    39764 |    17045     9271     23 |  0.001 % |
|     58180 |    2424    14812    39764 |    18749    11515     20 |  0.000 % |
|     87372 |    2424    14812    39764 |    20624    12057     19 |  0.001 % |
|    131161 |    2424    14812    39764 |    22686    14141     20 |  0.001 % |
|    196845 |    2424    14812    39764 |    24955    22287     20 |  0.001 % |
|    295371 |    2424    14812    39764 |    27451    19801     21 |  0.001 % |
|    443160 |    2424    14812    39764 |    30196    14516     19 |  0.001 % |
|    664843 |    2424    14812    39764 |    33215    22279     20 |  0.001 % |
===============================================================================
restarts              : 2046
conflicts             : 979618         (16267 /sec)
decisions             : 1073765        (0.00 % random) (17831 /sec)
propagations          : 340013600      (5646191 /sec)
conflict literals     : 21795778       (69.61 % deleted)
Memory used           : 27.00 MB
CPU time              : 60.22 s

SATISFIABLE
